23
3 60 58 49 
2 29 28 
3 22 5 35 
3 6 33 19 
3 15 2 5 
2 11 55 
3 48 43 44 
3 57 10 52 
2 11 54 
3 59 7 18 
2 8 38 
3 24 23 41 
2 42 4 
3 51 56 55 
2 40 3 
2 50 10 
3 41 20 58 
3 20 32 45 
3 9 52 16 
3 53 37 12 
2 9 12 
3 30 1 34 
2 8 29 
